c instance by G2
c solution = 0100101
c Known solution cost is 361 
p cnf 7 30
w 57 90 83 4 44 38 45
2 7 6 0
-3 2 -7 0
-3 -4 -7 0
-5 2 1 0
7 5 -2 0
-1 6 -5 0
3 5 -2 0
-6 -3 -5 0
2 -5 -6 0
-4 6 7 0
-6 4 -3 0
-5 4 -6 0
1 7 6 0
5 -7 3 0
6 -5 -3 0
-2 5 -4 0
7 -3 4 0
-4 -2 1 0
-6 7 -2 0
-4 -3 -6 0
-6 3 4 0
-3 -5 -2 0
5 4 -7 0
3 1 -6 0
-4 -1 -7 0
-5 6 2 0
1 6 2 0
6 2 5 0
5 2 4 0
-1 3 5 0
